param set_len = 26;
param target := 955678;
set values := 107629, 98933, 41645, 39797, 81687, 104704, 106319, 105383, 87948, 27814, 37489, 104097, 85322, 21993, 5003, 129389, 51799, 100449, 5566, 108741, 71041, 71293, 57193, 6675, 92099, 22104, ;
